1961234
0,62,136,197,125,123,180,135,85,217,113,56,75,153,199,41,42,162,176,198,23,17,215,201,189,221,179,120,188,116,21,19,6,38,73,82,161,156,146,139,206,30,207,184,155,67,88,74,191,182,209,70,134,66,48,31,49,150,93,71,61,33,195,204,106,95,90,25,5,32,103,167,229,60,84,220,138,58,24,131,181,79,83,122,147,64,13,142,10,92,44,51,47,46,29,69,109,45,72,97,205,151,68,22,203,81,55,145,128,152,178,183,228,111,154,26,101,34,160,222,63,15,7,110,148,212,213,224,226,12,16,18,175,14,59,43,96,124,57,223,216,108,149,170,89,169,185,186,102,11,37,202,141,227,87,3,20,165,173,119,114,94,166,192,208,194,187,78,190,9,200,158,177,126,117,35,100,214,36,27,77,115,8,144,210,133,171,1,130,172,76,40,105,218,65,104,52,53,91,99,174,98,127,140,157,196,137,2,28,225,112,121,50,118,159,163,164,193,211,219,4,143,107,54,39,86,80,129,168,132,0